Version identifier: 12.10.0.0 | 2019-11-26 | 843d4de
CPXPARAM_LPMethod                                4
CPXPARAM_Threads                                 1
CPXPARAM_SolutionType                            2
CPXPARAM_TimeLimit                               10000
Tried aggregator 1 time.
DUAL formed by presolve
Reduced LP has 1892 rows, 131581 columns, and 468009 nonzeros.
Presolve time = 0.51 sec. (308.85 ticks)
Parallel mode: none, using 1 thread for barrier
Number of nonzeros in lower triangle of A*A' = 281521
Using Approximate Minimum Degree ordering
Total time for automatic ordering = 0.09 sec. (57.49 ticks)
Summary statistics for Cholesky factor:
  Rows in Factor            = 1892
  Integer space required    = 14921
  Total non-zeros in factor = 1372054
  Total FP ops to factor    = 1249072534
 Itn      Primal Obj        Dual Obj  Prim Inf Upper Inf  Dual Inf Inf Ratio
   0   1.0000000e+06   0.0000000e+00  2.63e+06  0.00e+00  1.35e+07  1.00e+00
   1   5.8662959e+06   6.7433599e+03  2.47e+06  0.00e+00  1.33e+07  1.62e-01
   2   7.8933003e+07   1.7438984e+05  1.49e+06  0.00e+00  7.90e+06  1.27e-02
   3   4.0190355e+07   3.6589306e+05  1.56e+05  0.00e+00  2.00e+05  2.86e-02
   4   5.3399546e+05   3.5919590e+05  1.69e+03  0.00e+00  1.48e+03  5.75e+02
   5   1.1728848e+05   1.5901626e+05  3.24e+02  0.00e+00  6.11e+02  1.91e+03
   6   5.6384419e+04   9.8330364e+04  1.13e+02  0.00e+00  3.36e+02  3.90e+03
   7   4.2940748e+04   7.5361172e+04  3.37e+01  0.00e+00  2.10e+02  7.56e+03
   8   4.2569211e+04   6.7242754e+04  1.16e+01  0.00e+00  1.58e+02  1.13e+04
   9   4.2828780e+04   6.3618024e+04  9.82e+00  0.00e+00  1.33e+02  1.39e+04
  10   4.2832088e+04   5.8194069e+04  9.79e+00  0.00e+00  9.64e+01  2.08e+04
  11   4.4035102e+04   5.5483366e+04  6.19e+00  0.00e+00  7.48e+01  2.91e+04
  12   4.4752861e+04   5.2243431e+04  4.02e+00  0.00e+00  4.90e+01  5.21e+04
  13   4.5635305e+04   4.9142914e+04  1.23e+00  0.00e+00  2.45e+01  1.48e+05
  14   4.5816358e+04   4.8701208e+04  1.00e+00  0.00e+00  2.02e+01  1.93e+05
  15   4.5842145e+04   4.8074005e+04  6.34e-01  0.00e+00  1.57e+01  2.73e+05
  16   4.5917016e+04   4.7940322e+04  4.93e-01  0.00e+00  1.46e+01  3.01e+05
  17   4.6054458e+04   4.7294141e+04  2.71e-01  0.00e+00  9.12e+00  6.01e+05
  18   4.6054561e+04   4.7264460e+04  2.70e-01  0.00e+00  8.74e+00  6.36e+05
  19   4.6107784e+04   4.7220259e+04  2.38e-01  0.00e+00  8.24e+00  6.89e+05
  20   4.6159467e+04   4.7087645e+04  2.11e-01  0.00e+00  6.57e+00  9.43e+05
  21   4.6345052e+04   4.6983449e+04  1.30e-01  0.00e+00  5.04e+00  1.37e+06
  22   4.6564416e+04   4.6780424e+04  3.56e-02  0.00e+00  1.99e+00  6.92e+06
  23   4.6645561e+04   4.6721898e+04  1.19e-02  0.00e+00  7.55e-01  3.93e+07
  24   4.6700423e+04   4.6703232e+04  3.97e-04  0.00e+00  3.50e-02  2.36e+09
  25   4.6702702e+04   4.6702703e+04  7.05e-08  0.00e+00  7.49e-06  2.66e+13
Barrier time = 4.85 sec. (8583.48 ticks)

Total time on 1 threads = 4.85 sec. (8583.48 ticks)
Solver name: CPLEX
Solve time: 4.853387835
Termination status: OPTIMAL
Result count: 1
Primal status: FEASIBLE_POINT
Dual status: FEASIBLE_POINT
